32	0

0	2	2	3
8	1	4
9	2	5	7
3	2	5	7
8	1	6
2	1	8
9	1	8
3	1	9
6	1	10
2	2	11	12
1	1	13
7	1	13
6	1	14
5	2	15	16
6	1	18
2	1	17
1	1	18
6	1	19
1	1	20
2	1	21
5	2	22	23
10	2	24	25
9	2	24	25
10	1	26
10	1	26
8	1	27
5	2	28	30
2	1	29
6	1	31
7	1	31
2	1	32
0	0
